17	4	3
23	23	22	20	19	40	19	
0	0	0	0	0	7	9	9	7	1	2	3	2	3	4
6	6	5	7	6	9	4	4	4	10	5	1	17
3	8	5	7	3	3	10	9	2	1	3	2	5	6
7	4	9	2	2	7	9	4	5	3	10	1	8
8	5	9	7	6	5	4	8	8	5	9	3	7	10	13
175	3	10	1	9	4	1	8	2	8	8	2	15	17
125	2	7	2	8	4	7	2	8	1	2	2	12	17
25	5	10	3	10	3	3	1	1	5	2	1	9
250	9	7	4	9	4	1	10	7	6	2	2	11	17
225	10	8	8	5	6	1	6	3	9	10	1	17
150	9	3	10	2	2	2	1	9	4	9	1	17
225	3	4	1	2	7	7	5	8	4	6	2	14	16
4	10	2	6	2	10	6	8	1	6	3	1	17
5	7	7	5	9	2	9	4	1	6	9	1	17
10	1	1	7	3	2	1	9	8	4	8	1	17
1	2	8	4	4	7	5	9	8	3	3	1	17
0	0	0	0	0	6	9	9	1	7	3	0
